Route #1: 17 40 39 9 25 31 10 58 72 12 26
Route #2: 7 53 11 38 65 66 59 14 35
Route #3: 8 19 54 13 57 15 37 20 70 60 71 69 36 47 21
Route #4: 74 62 28 61 22 64 42 41 56 23 43 1 73
Route #5: 51 3 44 32 50 55 18 24 49 16 63 33 6
Route #6: 68 2 30 48 5 29 45 27 52 46 34
Route #7: 67 4 75
Cost 710